proj/int_adder_chain_--10-05-21-11.04.14/log/debug-partition.lp
\ Model mip-partition
\ LP format - for model browsing. Use MPS format to capture full model detail.
Maximize
  y[0,0] + y[0,1] + y[0,2] + y[0,3] + y[0,4] + y[0,5] + y[1,0] + y[1,1]
   + y[1,2] + y[1,3] + y[1,4] + y[1,5] + y[2,0] + y[2,1] + y[2,2] + y[2,3]
   + y[2,4] + y[2,5] + y[3,0] + y[3,1] + y[3,2] + y[3,3] + y[3,4] + y[3,5]
   + y[4,0] + y[4,1] + y[4,2] + y[4,3] + y[4,4] + y[4,5] + y[5,0] + y[5,1]
   + y[5,2] + y[5,3] + y[5,4] + y[5,5] + y[6,0] + y[6,1] + y[6,2] + y[6,3]
   + y[6,4] + y[6,5]
Subject To
 R0: x[0,0] + x[0,1] + x[0,2] + x[0,3] + x[0,4] + x[0,5] = 1
 R1: x[1,0] + x[1,1] + x[1,2] + x[1,3] + x[1,4] + x[1,5] = 1
 R2: x[2,0] + x[2,1] + x[2,2] + x[2,3] + x[2,4] + x[2,5] = 1
 R3: x[3,0] + x[3,1] + x[3,2] + x[3,3] + x[3,4] + x[3,5] = 1
 R4: x[4,0] + x[4,1] + x[4,2] + x[4,3] + x[4,4] + x[4,5] = 1
 R5: x[5,0] + x[5,1] + x[5,2] + x[5,3] + x[5,4] + x[5,5] = 1
 R6: x[6,0] + x[6,1] + x[6,2] + x[6,3] + x[6,4] + x[6,5] = 1
 R7: x[7,0] + x[7,1] + x[7,2] + x[7,3] + x[7,4] + x[7,5] = 1
 R8: x[0,0] + x[1,0] + x[2,0] + x[3,0] + x[4,0] + x[5,0] + x[6,0] + x[7,0]
   >= 0
 R9: x[0,1] + x[1,1] + x[2,1] + x[3,1] + x[4,1] + x[5,1] + x[6,1] + x[7,1]
   >= 0
 R10: x[0,0] + x[1,0] + x[2,0] + x[3,0] + x[4,0] + x[5,0] + x[6,0] + x[7,0]
   <= 2
 R11: x[0,1] + x[1,1] + x[2,1] + x[3,1] + x[4,1] + x[5,1] + x[6,1] + x[7,1]
   <= 2
 R12: x[0,2] + x[1,2] + x[2,2] + x[3,2] + x[4,2] + x[5,2] + x[6,2] + x[7,2]
   >= 0
 R13: x[0,3] + x[1,3] + x[2,3] + x[3,3] + x[4,3] + x[5,3] + x[6,3] + x[7,3]
   >= 0
 R14: x[0,4] + x[1,4] + x[2,4] + x[3,4] + x[4,4] + x[5,4] + x[6,4] + x[7,4]
   >= 0
 R15: x[0,5] + x[1,5] + x[2,5] + x[3,5] + x[4,5] + x[5,5] + x[6,5] + x[7,5]
   >= 0
 R16: x[0,2] + x[1,2] + x[2,2] + x[3,2] + x[4,2] + x[5,2] + x[6,2] + x[7,2]
   <= 1
 R17: x[0,3] + x[1,3] + x[2,3] + x[3,3] + x[4,3] + x[5,3] + x[6,3] + x[7,3]
   <= 2
 R18: x[0,4] + x[1,4] + x[2,4] + x[3,4] + x[4,4] + x[5,4] + x[6,4] + x[7,4]
   <= 2
 R19: x[0,5] + x[1,5] + x[2,5] + x[3,5] + x[4,5] + x[5,5] + x[6,5] + x[7,5]
   <= 2
 R20: - x[0,0] + y[0,0] <= 0
 R21: - x[0,1] + y[0,1] <= 0
 R22: - x[0,2] + y[0,2] <= 0
 R23: - x[0,3] + y[0,3] <= 0
 R24: - x[0,4] + y[0,4] <= 0
 R25: - x[0,5] + y[0,5] <= 0
 R26: - x[1,0] + y[0,0] <= 0
 R27: - x[1,1] + y[0,1] <= 0
 R28: - x[1,2] + y[0,2] <= 0
 R29: - x[1,3] + y[0,3] <= 0
 R30: - x[1,4] + y[0,4] <= 0
 R31: - x[1,5] + y[0,5] <= 0
 R32: - x[0,0] + y[1,0] <= 0
 R33: - x[0,1] + y[1,1] <= 0
 R34: - x[0,2] + y[1,2] <= 0
 R35: - x[0,3] + y[1,3] <= 0
 R36: - x[0,4] + y[1,4] <= 0
 R37: - x[0,5] + y[1,5] <= 0
 R38: - x[2,0] + y[1,0] <= 0
 R39: - x[2,1] + y[1,1] <= 0
 R40: - x[2,2] + y[1,2] <= 0
 R41: - x[2,3] + y[1,3] <= 0
 R42: - x[2,4] + y[1,4] <= 0
 R43: - x[2,5] + y[1,5] <= 0
 R44: - x[0,0] + y[2,0] <= 0
 R45: - x[0,1] + y[2,1] <= 0
 R46: - x[0,2] + y[2,2] <= 0
 R47: - x[0,3] + y[2,3] <= 0
 R48: - x[0,4] + y[2,4] <= 0
 R49: - x[0,5] + y[2,5] <= 0
 R50: - x[3,0] + y[2,0] <= 0
 R51: - x[3,1] + y[2,1] <= 0
 R52: - x[3,2] + y[2,2] <= 0
 R53: - x[3,3] + y[2,3] <= 0
 R54: - x[3,4] + y[2,4] <= 0
 R55: - x[3,5] + y[2,5] <= 0
 R56: - x[3,0] + y[3,0] <= 0
 R57: - x[3,1] + y[3,1] <= 0
 R58: - x[3,2] + y[3,2] <= 0
 R59: - x[3,3] + y[3,3] <= 0
 R60: - x[3,4] + y[3,4] <= 0
 R61: - x[3,5] + y[3,5] <= 0
 R62: - x[4,0] + y[3,0] <= 0
 R63: - x[4,1] + y[3,1] <= 0
 R64: - x[4,2] + y[3,2] <= 0
 R65: - x[4,3] + y[3,3] <= 0
 R66: - x[4,4] + y[3,4] <= 0
 R67: - x[4,5] + y[3,5] <= 0
 R68: - x[3,0] + y[4,0] <= 0
 R69: - x[3,1] + y[4,1] <= 0
 R70: - x[3,2] + y[4,2] <= 0
 R71: - x[3,3] + y[4,3] <= 0
 R72: - x[3,4] + y[4,4] <= 0
 R73: - x[3,5] + y[4,5] <= 0
 R74: - x[5,0] + y[4,0] <= 0
 R75: - x[5,1] + y[4,1] <= 0
 R76: - x[5,2] + y[4,2] <= 0
 R77: - x[5,3] + y[4,3] <= 0
 R78: - x[5,4] + y[4,4] <= 0
 R79: - x[5,5] + y[4,5] <= 0
 R80: - x[5,0] + y[5,0] <= 0
 R81: - x[5,1] + y[5,1] <= 0
 R82: - x[5,2] + y[5,2] <= 0
 R83: - x[5,3] + y[5,3] <= 0
 R84: - x[5,4] + y[5,4] <= 0
 R85: - x[5,5] + y[5,5] <= 0
 R86: - x[6,0] + y[5,0] <= 0
 R87: - x[6,1] + y[5,1] <= 0
 R88: - x[6,2] + y[5,2] <= 0
 R89: - x[6,3] + y[5,3] <= 0
 R90: - x[6,4] + y[5,4] <= 0
 R91: - x[6,5] + y[5,5] <= 0
 R92: - x[5,0] + y[6,0] <= 0
 R93: - x[5,1] + y[6,1] <= 0
 R94: - x[5,2] + y[6,2] <= 0
 R95: - x[5,3] + y[6,3] <= 0
 R96: - x[5,4] + y[6,4] <= 0
 R97: - x[5,5] + y[6,5] <= 0
 R98: - x[7,0] + y[6,0] <= 0
 R99: - x[7,1] + y[6,1] <= 0
 R100: - x[7,2] + y[6,2] <= 0
 R101: - x[7,3] + y[6,3] <= 0
 R102: - x[7,4] + y[6,4] <= 0
 R103: - x[7,5] + y[6,5] <= 0
 R104: x[0,0] + x[0,1] = 1
 R105: x[1,3] + x[1,4] + x[1,5] = 1
 R106: x[2,3] + x[2,4] + x[2,5] = 1
 R107: x[3,0] + x[3,1] = 1
 R108: x[4,3] + x[4,4] + x[4,5] = 1
 R109: x[5,0] + x[5,1] = 1
 R110: x[6,3] + x[6,4] + x[6,5] = 1
 R111: x[7,2] = 1
Bounds
Binaries
 x[0,0] x[0,1] x[0,2] x[0,3] x[0,4] x[0,5] x[1,0] x[1,1] x[1,2] x[1,3]
 x[1,4] x[1,5] x[2,0] x[2,1] x[2,2] x[2,3] x[2,4] x[2,5] x[3,0] x[3,1]
 x[3,2] x[3,3] x[3,4] x[3,5] x[4,0] x[4,1] x[4,2] x[4,3] x[4,4] x[4,5]
 x[5,0] x[5,1] x[5,2] x[5,3] x[5,4] x[5,5] x[6,0] x[6,1] x[6,2] x[6,3]
 x[6,4] x[6,5] x[7,0] x[7,1] x[7,2] x[7,3] x[7,4] x[7,5] y[0,0] y[0,1]
 y[0,2] y[0,3] y[0,4] y[0,5] y[1,0] y[1,1] y[1,2] y[1,3] y[1,4] y[1,5]
 y[2,0] y[2,1] y[2,2] y[2,3] y[2,4] y[2,5] y[3,0] y[3,1] y[3,2] y[3,3]
 y[3,4] y[3,5] y[4,0] y[4,1] y[4,2] y[4,3] y[4,4] y[4,5] y[5,0] y[5,1]
 y[5,2] y[5,3] y[5,4] y[5,5] y[6,0] y[6,1] y[6,2] y[6,3] y[6,4] y[6,5]
End
